PARAMETER_FILE = ./image_lr.par
Reading PROBLEM_FILE: "image_lr.tsp" ... done
ASCENT_CANDIDATES = 50
BACKBONE_TRIALS = 0
BACKTRACKING = NO
# CANDIDATE_FILE =
CANDIDATE_SET_TYPE = ALPHA
# EDGE_FILE =
EXCESS = 6.0562e-05
EXTRA_CANDIDATES = 0 
EXTRA_CANDIDATE_SET_TYPE = QUADRANT
GAIN23 = YES
GAIN_CRITERION = YES
INITIAL_PERIOD = 1000
INITIAL_STEP_SIZE = 1
INITIAL_TOUR_ALGORITHM = WALK
# INITIAL_TOUR_FILE = 
INITIAL_TOUR_FRACTION = 1.000
# INPUT_TOUR_FILE = 
KICK_TYPE = 0
KICKS = 1
# MAX_BREADTH =
MAX_CANDIDATES = 0 
MAX_SWAPS = 16512
MAX_TRIALS = 1
# MERGE_TOUR_FILE =
MOVE_TYPE = 5
NONSEQUENTIAL_MOVE_TYPE = 9
# OPTIMUM =
# OUTPUT_TOUR_FILE = 
PATCHING_A = 2 
PATCHING_C = 3 
# PI_FILE = 
POPMUSIC_INITIAL_TOUR = NO
POPMUSIC_MAX_NEIGHBORS = 5
POPMUSIC_SAMPLE_SIZE = 10
POPMUSIC_SOLUTIONS = 50
POPMUSIC_TRIALS = 1
# POPULATION_SIZE = 0
PRECISION = 100
PROBLEM_FILE = image_lr.tsp
RECOMBINATION = IPT
RESTRICTED_SEARCH = YES
RUNS = 5
SEED = 1
STOP_AT_OPTIMUM = YES
SUBGRADIENT = YES
# SUBPROBLEM_SIZE =
# SUBPROBLEM_TOUR_FILE = 
SUBSEQUENT_MOVE_TYPE = 5
SUBSEQUENT_PATCHING = YES
# TIME_LIMIT =
TOUR_FILE = tour_lr
TRACE_LEVEL = 1

Lower bound = 18773699.6, Ascent time = 26.68 sec.
Cand.min = 5, Cand.avg = 13.8, Cand.max = 14
Preprocessing time = 26.70 sec.
* 1: Cost = 18789560, Time = 210.90 sec. 
Writing TOUR_FILE: "tour_lr" ... done
Run 1: Cost = 18789560, Time = 210.90 sec. 

* 1: Cost = 18788500, Time = 96.31 sec. 
Writing TOUR_FILE: "tour_lr" ... done
Run 2: Cost = 18788434, Time = 96.32 sec. 

* 1: Cost = 18787712, Time = 163.15 sec. 
Writing TOUR_FILE: "tour_lr" ... done
Run 3: Cost = 18787711, Time = 163.16 sec. 

* 1: Cost = 18788767, Time = 128.32 sec. 
Run 4: Cost = 18788767, Time = 128.33 sec. 

* 1: Cost = 18789553, Time = 164.25 sec. 
Run 5: Cost = 18789553, Time = 164.26 sec. 

Successes/Runs = 0/5
Cost.min = 18787711, Cost.avg = 18788805.00, Cost.max = 18789560
Gap.min = 0.0000%, Gap.avg = 0.0058%, Gap.max = 0.0098%
Trials.min = 1, Trials.avg = 1.0, Trials.max = 1
Time.min = 96.32 sec., Time.avg = 152.60 sec., Time.max = 210.90 sec.
Time.total = 789.77 sec.
